#######################



#######################
Set parameter TimeLimit to value 300
Set parameter SoftMemLimit to value 125
Set parameter MIPFocus to value 3
Set parameter LogFile to value 1202-MIPFocus3-Presolve1-TimeLimit300-k16x240-4.log
Set parameter Presolve to value 1
Set parameter Seed to value 4
Using license file /opt/gurobi/gurobi.lic

Gurobi Optimizer version 12.0.2 build v12.0.2rc0 (linux64 - "Ubuntu 22.04.4 LTS")
Copyright (c) 2025, Gurobi Optimization, LLC

Read MPS format model from file /miplib2010/k16x240.mps.bz2
Reading time = 0.00 seconds
k16x240: 256 rows, 480 columns, 960 nonzeros

Using Gurobi shared library /nfs/shared/static-builds/gurobi1202

CPU model: Intel(R) Xeon(R) E-2388G CPU @ 3.20GHz, instruction set [SSE2|AVX|AVX2|AVX512]
Thread count: 8 physical cores, 16 logical processors, using up to 16 threads

Non-default parameters:
TimeLimit  300
SoftMemLimit  125
MIPFocus  3
Presolve  1
Seed  4

Optimize a model with 256 rows, 480 columns and 960 nonzeros
Model fingerprint: 0x4e80885f
Variable types: 240 continuous, 240 integer (240 binary)
Coefficient statistics:
  Matrix range     [1e+00, 1e+03]
  Objective range  [1e+00, 1e+03]
  Bounds range     [1e+00, 1e+03]
  RHS range        [4e+00, 4e+02]
Found heuristic solution: objective 20422.000000
Presolve time: 0.00s
Presolved: 256 rows, 480 columns, 960 nonzeros
Variable types: 240 continuous, 240 integer (240 binary)

Root relaxation: objective 2.769838e+03, 51 iterations, 0.00 seconds (0.00 work units)

    Nodes    |    Current Node    |     Objective Bounds      |     Work
 Expl Unexpl |  Obj  Depth IntInf | Incumbent    BestBd   Gap | It/Node Time

     0     0 2769.83800    0   14 20422.0000 2769.83800  86.4%     -    0s
H    0     0                    11359.000000 2769.83800  75.6%     -    0s
H    0     0                    11195.000000 2769.83800  75.3%     -    0s
H    0     0                    11088.000000 2769.83800  75.0%     -    0s
H    0     0                    11074.000000 2769.83800  75.0%     -    0s
H    0     0                    10916.000000 8116.87580  25.6%     -    0s
     0     0 8116.87580    0   26 10916.0000 8116.87580  25.6%     -    0s
H    0     0                    10838.000000 8182.85928  24.5%     -    0s
H    0     0                    10836.000000 8182.85928  24.5%     -    0s
H    0     0                    10826.000000 8182.85928  24.4%     -    0s
H    0     0                    10806.000000 8182.85928  24.3%     -    0s
     0     0 8738.72045    0   24 10806.0000 8738.72045  19.1%     -    0s
     0     0 9005.96027    0   31 10806.0000 9005.96027  16.7%     -    0s
     0     0 9006.18103    0   32 10806.0000 9006.18103  16.7%     -    0s
     0     0 9006.18103    0   33 10806.0000 9006.18103  16.7%     -    0s
H    0     0                    10778.000000 9006.18103  16.4%     -    0s
H    0     0                    10748.000000 9112.51980  15.2%     -    0s
     0     0 9133.06659    0   39 10748.0000 9133.06659  15.0%     -    0s
     0     0 9270.53648    0   39 10748.0000 9270.53648  13.7%     -    0s
     0     0 9308.11144    0   38 10748.0000 9308.11144  13.4%     -    0s
     0     0 9308.11144    0   38 10748.0000 9308.11144  13.4%     -    0s
H    0     0                    10701.000000 9308.11144  13.0%     -    0s
H    0     0                    10681.000000 9308.11144  12.9%     -    0s
     0     2 9308.11144    0   38 10681.0000 9308.11144  12.9%     -    0s
H   95   101                    10678.000000 9411.71361  11.9%  69.1    0s
H  332   358                    10674.000000 9536.40956  10.7%  52.1    0s
  4481  3388 10434.9971   31   31 10674.0000 10241.7956  4.05%  99.2    5s
 18898  9912     cutoff   41      10674.0000 10470.1616  1.91%  68.7   10s

Cutting planes:
  Lift-and-project: 5
  Cover: 3
  Implied bound: 13
  Dual implied bound: 10
  MIR: 134
  Flow cover: 516
  Flow path: 47
  Zero half: 28
  Network: 21
  Relax-and-lift: 5

Explored 51177 nodes (2065240 simplex iterations) in 14.30 seconds (19.40 work units)
Thread count was 16 (of 16 available processors)

Solution count 10: 10674 10678 10681 ... 10838

Optimal solution found (tolerance 1.00e-04)
Best objective 1.067400000000e+04, best bound 1.067300000000e+04, gap 0.0094%
